Version identifier: 22.1.1.0 | 2022-11-28 | 9160aff4d
CPXPARAM_ClockType                               1
CPXPARAM_Read_DataCheck                          1
CPXPARAM_Threads                                 1
CPXPARAM_TimeLimit                               7200
CPXPARAM_MIP_Tolerances_AbsMIPGap                0
CPXPARAM_MIP_Tolerances_MIPGap                   0
CPXPARAM_MIP_Tolerances_Integrality              0
Tried aggregator 2 times.
MIP Presolve eliminated 497 rows and 1 columns.
MIP Presolve modified 792 coefficients.
Aggregator did 300 substitutions.
Reduced MIP has 1492 rows, 899 columns, and 4466 nonzeros.
Reduced MIP has 899 binaries, 0 generals, 0 SOSs, and 0 indicators.
Presolve time = 0.00 sec. (6.06 ticks)
Found incumbent of value -530.000000 after 0.02 sec. (10.98 ticks)
Probing time = 0.01 sec. (1.82 ticks)
Tried aggregator 1 time.
Detecting symmetries...
MIP Presolve eliminated 102 rows and 4 columns.
MIP Presolve modified 2 coefficients.
Reduced MIP has 1390 rows, 895 columns, and 4156 nonzeros.
Reduced MIP has 895 binaries, 0 generals, 0 SOSs, and 0 indicators.
Presolve time = 0.01 sec. (4.69 ticks)
Probing time = 0.00 sec. (1.66 ticks)
Clique table members: 2927.
MIP emphasis: balance optimality and feasibility.
MIP search method: dynamic search.
Parallel mode: none, using 1 thread.
Root relaxation solution time = 0.02 sec. (20.44 ticks)

        Nodes                                         Cuts/
   Node  Left     Objective  IInf  Best Integer    Best Bound    ItCnt     Gap

*     0+    0                         -522.0000      150.0000           128.74%
      0     0      100.0000   339     -522.0000      100.0000      570  119.16%
*     0+    0                          100.0000      100.0000             0.00%
      0     0        cutoff            100.0000      100.0000      570    0.00%
Elapsed time = 0.16 sec. (94.44 ticks, tree = 0.01 MB, solutions = 3)

Root node processing (before b&c):
  Real time             =    0.16 sec. (94.50 ticks)
Sequential b&c:
  Real time             =    0.00 sec. (0.00 ticks)
                          ------------
Total (root+branch&cut) =    0.16 sec. (94.50 ticks)
Solution is feasible.

---------------------
@@@ MIP_optimal
>>> Benchmark flat50-9.cnf k 2 OPT 100 TimeCost 0.26827502250671387 TimeSolve 0.16104745864868164 TimeRead 0.0022535324096679688 TimeTrans 0.10497403144836426
